p cnf 741 1804
c ind 716 583 728 732 708 710 711 693 585 719 0
c ind 723 729 682 687 721 722 733 735 738 688 0
c ind 736 698 713 734 730 739 731 726 737 727 0
c ind 695 712 718 717 725 668 694 587 690 720 0
c ind 707 673 589 670 709 724 605 669 601 602 0
c ind 622 636 666 623 641 705 638 595 590 594 0
c ind 592 637 591 604 593 696 700 684 685 686 0
c ind 699 675 706 626 703 629 677 704 674 642 0
c ind 652 689 649 678 610 683 651 681 714 702 0
c ind 611 650 653 697 676 701 715 645 679 671 0
c ind 613 616 665 680 615 656 654 672 639 633 0
c ind 634 691 630 658 655 660 618 663 627 657 0
c ind 659 662 635 692 664 596 606 640 661 609 0
c ind 617 628 600 648 608 631 584 632 599 621 0
c ind 619 647 603 643 646 597 614 607 598 620 0
c ind 624 667 612 644 586 625 588 1 0
c ret 415 538 539 540 541 542 543 544 450 545 0
c ret 416 451 546 547 548 549 452 550 551 552 0
c ret 553 554 555 417 556 557 558 559 453 560 0
c ret 454 561 562 418 563 564 565 566 567 568 0
c ret 569 570 571 572 573 574 575 576 577 578 0
c ret 419 579 580 581 582 420 455 421 456 457 0
c ret 458 422 407 423 459 424 460 461 425 462 0
c ret 426 463 427 428 464 429 465 466 408 430 0
c ret 431 467 468 469 470 471 472 473 432 474 0
c ret 433 434 475 476 435 477 478 479 480 481 0
c ret 482 409 436 483 484 485 486 487 488 489 0
c ret 490 437 438 439 440 441 491 442 492 493 0
c ret 410 443 494 495 496 497 498 411 499 500 0
c ret 501 502 503 504 505 506 507 412 508 509 0
c ret 510 511 512 513 444 514 445 515 516 517 0
c ret 518 446 447 519 413 520 521 522 523 448 0
c ret 449 524 525 526 527 528 529 414 530 531 0
c ret 532 533 534 535 536 537 0
2 58 281 -287 0
2 -3 281 -287 0
-2 287 0
-2 -281 0
-2 3 -58 0
3 4 38 0
3 -4 21 0
3 4 -21 0
3 -4 -39 0
-3 -4 -21 39 0
-3 4 21 -38 0
4 -19 -584 0
4 5 584 0
-4 -5 584 0
-4 19 -584 0
5 -16 -586 0
5 6 586 0
-5 -6 586 0
-5 16 -586 0
6 -9 -588 0
6 7 588 0
-6 -7 588 0
-6 9 -588 0
7 -606 -627 0
7 -8 -627 0
-7 627 0
-7 8 606 0
8 -599 -600 -628 0
-8 599 0
-8 600 0
-8 628 0
7 9 10 0
9 -10 656 0
-7 -9 10 0
-9 -10 -656 0
10 11 607 0
-10 -607 0
-10 -11 0
11 12 -657 0
-11 657 0
-11 -12 0
12 13 660 0
12 13 661 0
-12 -13 0
-12 -660 -661 0
13 14 -15 607 657 0
-13 15 0
-13 -14 0
-13 -607 0
-13 -657 0
14 608 617 -664 0
-14 664 0
-14 -617 0
-14 -608 0
15 -658 660 661 0
-15 658 0
-15 -661 0
-15 -660 0
16 -17 -681 0
6 16 17 0
-6 -16 17 0
-16 -17 681 0
11 17 -18 0
-11 -17 0
-17 18 0
18 588 607 0
-18 -588 0
-18 -607 0
5 19 20 0
19 -20 707 0
-5 -19 20 0
-19 -20 -707 0
11 -18 20 586 0
18 -20 0
-11 -20 0
-20 -586 0
21 -36 -410 0
21 22 410 0
-21 -22 410 0
-21 36 -410 0
22 -33 -412 0
22 23 412 0
-22 -23 412 0
-22 33 -412 0
23 -26 -414 0
23 24 414 0
-23 -24 414 0
-23 26 -414 0
24 -432 -453 0
24 -25 -453 0
-24 453 0
-24 25 432 0
25 -425 -426 -454 0
-25 425 0
-25 426 0
-25 454 0
24 26 27 0
26 -27 482 0
-24 -26 27 0
-26 -27 -482 0
27 28 433 0
-27 -433 0
-27 -28 0
28 29 -483 0
-28 483 0
-28 -29 0
29 30 486 0
29 30 487 0
-29 -30 0
-29 -486 -487 0
30 31 -32 433 483 0
-30 32 0
-30 -31 0
-30 -433 0
-30 -483 0
31 434 443 -490 0
-31 490 0
-31 -443 0
-31 -434 0
32 -484 486 487 0
-32 484 0
-32 -487 0
-32 -486 0
33 -34 -507 0
23 33 34 0
-23 -33 34 0
-33 -34 507 0
28 34 -35 0
-28 -34 0
-34 35 0
35 414 433 0
-35 -414 0
-35 -433 0
22 36 37 0
36 -37 533 0
-22 -36 37 0
-36 -37 -533 0
28 -35 37 412 0
35 -37 0
-28 -37 0
-37 -412 0
-18 38 584 586 0
18 -38 0
-38 -586 0
-38 -584 0
39 52 724 731 0
39 -40 52 731 0
-39 -52 0
-39 -731 0
-39 40 -724 0
40 47 715 722 0
40 -41 47 722 0
-40 -47 0
-40 -722 0
-40 41 -715 0
41 -584 715 0
41 -42 584 0
-41 -584 -715 0
-41 42 584 0
42 -586 692 0
42 -43 586 0
-42 -586 -692 0
-42 43 586 0
43 -588 667 0
43 -44 588 0
-43 -588 -667 0
-43 44 588 0
44 -46 614 0
44 -46 -625 0
44 45 -46 0
-44 46 0
-44 -45 -614 625 0
45 644 646 647 -648 0
-45 648 0
-45 -647 0
-45 -644 0
-45 -646 0
46 646 647 0
46 625 644 0
46 644 647 0
46 625 646 0
-46 -644 -646 0
-46 -625 -647 0
47 48 -692 0
47 48 -714 0
-47 -48 0
-47 692 714 0
48 49 584 0
48 -584 692 714 0
-48 -584 -692 0
-48 -49 584 0
-48 -584 -714 0
49 -586 -667 0
49 50 586 0
49 -586 -691 0
-49 -50 586 0
-49 -586 667 691 0
50 -51 588 0
-50 -588 0
-50 51 0
51 -625 644 0
51 625 643 0
-51 625 -643 0
-51 -625 -644 0
52 -584 -712 0
52 53 584 0
-52 -584 712 0
-52 -53 584 0
53 -586 689 0
53 -54 586 0
-53 -586 -689 0
-53 54 586 0
54 -588 665 0
54 -55 588 0
-54 -588 -665 0
-54 55 588 0
55 56 596 0
55 56 618 619 0
-55 -56 0
-55 -596 -619 0
-55 -596 -618 0
56 57 597 -618 -619 0
-56 -597 0
-56 -57 0
-56 619 0
-56 618 0
57 -620 -621 0
-57 620 0
-57 621 0
58 -70 -81 0
58 59 -81 584 0
-58 81 0
-58 -59 70 0
-58 70 -584 0
59 60 69 0
5 59 60 -65 0
-59 -60 0
-5 -59 -69 0
-59 65 -69 0
60 -61 708 711 0
60 61 62 708 -711 0
-60 -61 -711 0
-60 61 -62 0
-60 -708 0
-60 61 711 0
61 586 588 0
-61 -586 0
-61 -588 0
62 -63 635 -683 0
62 -63 -683 -684 0
-62 63 0
-62 683 0
-62 -635 684 0
63 -586 -709 0
63 -64 586 0
-63 64 586 0
-63 -586 709 0
64 -588 -685 0
64 588 -686 0
-64 588 686 0
-64 -588 685 0
-53 65 -66 710 0
-53 65 701 710 0
53 -65 0
-65 -710 0
-65 66 -701 0
66 67 692 699 0
-42 66 67 699 0
-66 -67 0
-66 -699 0
42 -66 -692 0
67 68 -667 0
67 68 -691 0
-67 -68 0
-67 667 691 0
-50 68 586 0
-68 -586 0
50 -68 0
61 -62 69 -708 0
-69 708 0
-61 -69 0
62 -69 0
-19 70 -71 77 -79 0
-70 79 0
19 -70 0
-70 71 0
-70 -77 0
71 72 75 0
-71 -72 0
-71 -75 0
72 74 701 -702 0
72 73 74 701 0
-72 -701 0
-72 -74 0
-72 -73 702 0
73 667 691 0
-73 -667 0
-73 -691 0
74 624 625 0
74 612 -625 0
-74 -624 625 0
-74 -612 -625 0
75 76 701 0
-75 -701 0
-75 -76 0
-74 76 -692 0
76 692 703 0
-76 692 -703 0
74 -76 -692 0
77 78 704 0
77 -586 704 0
-77 -704 0
-77 -78 586 0
78 588 603 0
-78 -588 0
-78 -603 0
-61 79 80 -584 0
-79 584 0
61 -79 0
-79 -80 0
80 -633 634 -635 0
-80 633 0
-80 -634 0
-80 635 0
-4 81 82 -83 0
-38 81 82 -83 0
-81 83 0
-81 -82 0
4 38 -81 0
-5 82 -586 0
-5 18 82 0
5 -82 0
-18 -82 586 0
83 -91 -101 0
83 84 -101 586 0
-83 101 0
-83 -84 91 0
-83 91 -586 0
84 85 90 0
-6 84 85 -88 0
-84 -85 0
6 -84 -90 0
-84 88 -90 0
85 588 682 688 0
85 86 -588 682 -688 0
-85 -588 688 0
-85 -86 -688 0
-85 -682 0
-85 588 -688 0
86 -87 -588 -685 0
86 -87 588 -686 0
-86 87 0
-86 -588 685 0
-86 588 686 0
87 635 -683 0
87 -683 -684 0
-87 683 0
-87 -635 684 0
-54 88 -89 687 0
-54 88 676 687 0
54 -88 0
-88 -687 0
-88 89 -676 0
-50 89 667 674 0
-43 -50 89 674 0
50 -89 0
-89 -674 0
43 -89 -667 0
-86 90 -588 -682 0
-90 588 0
-90 682 0
86 -90 0
16 91 -92 96 -98 0
-91 92 0
-91 -96 0
-16 -91 0
-91 98 0
92 93 95 0
-89 92 93 0
-92 -93 0
89 -92 -95 0
93 94 676 0
-93 -676 0
-93 -94 0
-74 94 -667 0
94 667 677 0
-94 667 -677 0
74 -94 -667 0
-50 95 675 0
95 667 675 0
-95 -675 0
50 -95 -667 0
-80 96 588 0
96 -97 588 0
-96 -588 0
80 -96 97 0
-55 97 -598 0
-97 598 0
55 -97 0
98 99 100 -586 588 0
-98 -100 0
-98 -99 0
-98 586 0
-98 -588 0
74 99 676 0
-99 -676 0
-74 -99 0
78 100 678 0
-100 -678 0
-78 -100 0
101 102 -118 -267 -276 0
-101 -102 0
-101 276 0
-101 267 0
-101 118 0
-40 102 116 0
40 102 -115 0
40 102 -103 0
-40 102 103 0
-40 -102 -103 -116 0
40 -102 103 115 0
103 110 564 566 0
103 -104 110 564 0
-103 -564 0
-103 -110 0
-103 104 -566 0
104 -410 541 0
104 -105 410 0
-104 -410 -541 0
-104 105 410 0
105 -412 518 0
105 -106 412 0
-105 -412 -518 0
-105 106 412 0
106 -414 493 0
106 -107 414 0
-106 -414 -493 0
-106 107 414 0
107 -109 440 0
107 -109 -451 0
107 108 -109 0
-107 109 0
-107 -108 -440 451 0
108 470 472 473 -474 0
-108 474 0
-108 -473 0
-108 -470 0
-108 -472 0
109 472 473 0
109 451 470 0
109 470 473 0
109 451 472 0
-109 -470 -472 0
-109 -451 -473 0
110 111 -541 0
110 111 -565 0
-110 -111 0
-110 541 565 0
111 112 410 0
111 -410 518 540 0
-111 -410 -518 0
-111 -112 410 0
-111 -410 -540 0
112 -412 -493 0
112 113 412 0
112 -412 -517 0
-112 -113 412 0
-112 -412 493 517 0
113 -114 414 0
-113 -414 0
-113 114 0
114 -451 470 0
114 451 469 0
-114 451 -469 0
-114 -451 -470 0
-48 115 723 0
115 715 723 0
-115 -723 0
48 -115 -715 0
116 -117 584 0
-116 -584 0
-116 117 0
49 117 700 0
117 692 700 0
-117 -700 0
-49 -117 -692 0
-6 118 -119 -245 0
-18 118 -119 -245 0
-118 245 0
-118 119 0
6 18 -118 0
-66 119 -120 243 0
116 119 -120 243 0
-119 120 0
-119 -243 0
66 -116 -119 0
120 -121 -130 -196 -235 0
-120 235 0
-120 121 0
-120 196 0
-120 130 0
-89 121 -122 649 0
89 121 -122 129 0
-121 122 0
89 -121 -129 0
-89 -121 -649 0
-48 -111 122 126 0
48 111 122 -123 0
48 111 122 126 0
-48 -111 122 -123 0
48 -111 -122 0
-48 111 -122 0
-122 123 -126 0
123 -124 -657 0
123 124 125 0
-123 -124 657 0
-123 124 -125 0
124 584 586 588 0
-124 -584 0
-124 -588 0
-124 -586 0
-12 125 657 0
-12 125 607 0
12 -125 0
-125 -607 -657 0
126 -127 -483 0
126 127 128 0
-126 -127 483 0
-126 127 -128 0
127 410 412 414 0
-127 -410 0
-127 -414 0
-127 -412 0
-29 128 483 0
-29 128 433 0
29 -128 0
-128 -433 -483 0
-95 129 586 0
-129 -586 0
95 -129 0
130 -131 -142 -152 -186 0
-130 186 0
-130 131 0
-130 152 0
-130 142 0
131 -132 135 136 -138 0
131 -132 -135 -136 -138 0
-131 138 0
-131 -135 136 0
-131 132 0
-131 135 -136 0
132 133 -134 0
132 133 -718 -727 0
-132 -133 0
-132 134 727 0
-132 134 718 0
78 133 670 0
133 -653 670 0
-133 -670 0
-78 -133 653 0
-78 134 584 586 0
78 -134 0
-134 -586 0
-134 -584 0
-61 135 584 0
-135 -584 0
61 -135 0
136 -137 410 0
-136 -410 0
-136 137 0
137 412 414 0
-137 -412 0
-137 -414 0
138 -139 141 -586 0
100 138 -139 141 0
-138 139 0
-138 -141 0
-100 -138 586 0
80 139 -140 0
135 139 -695 0
80 139 -695 0
135 139 -140 0
-139 140 695 0
-80 -135 -139 0
-78 140 586 0
-140 -586 0
78 -140 0
141 -603 622 0
141 -603 604 623 0
-141 603 0
-141 -604 -622 0
-141 -622 -623 0
142 -144 -148 603 0
142 -143 -144 -148 0
-142 148 0
-142 144 0
-142 143 -603 0
143 -602 605 0
143 601 -604 0
143 -602 -604 0
143 601 605 0
-143 604 -605 0
-143 -601 602 0
-74 144 147 0
144 145 -146 0
144 145 147 0
-74 144 -146 0
74 -144 -145 0
-144 146 -147 0
145 450 451 0
145 438 -451 0
-145 -450 451 0
-145 -438 -451 0
146 541 565 569 0
-146 -541 0
-146 -569 0
-146 -565 0
147 692 714 725 0
-147 -692 0
-147 -725 0
-147 -714 0
-147 148 -149 150 0
146 148 -149 150 0
-148 149 0
-148 -150 0
-146 147 -148 0
74 149 626 0
-74 -145 149 0
74 149 -611 0
-74 145 -149 0
74 -149 611 -626 0
150 -151 -607 -608 609 0
-150 151 0
-150 607 0
-150 608 0
-150 -609 0
151 -599 -606 0
-151 599 0
-151 606 0
152 -153 -165 -174 -176 0
-152 176 0
-152 153 0
-152 174 0
-152 165 0
153 -154 -158 -159 -160 0
-153 160 0
-153 154 0
-153 159 0
-153 158 0
154 155 -156 724 0
154 155 -156 -568 0
-154 156 0
-154 -155 0
-154 568 -724 0
155 -603 653 0
-155 603 0
-155 -653 0
156 157 -683 0
156 157 509 0
-156 -157 0
-156 -509 683 0
157 -635 684 0
-157 635 0
-157 -684 0
158 -580 -616 0
158 442 737 0
158 442 -580 0
158 -616 737 0
-158 -442 616 0
-158 580 -737 0
159 510 571 0
159 -684 -727 0
159 510 -727 0
159 571 -684 0
-159 -510 684 0
-159 -571 727 0
160 -161 -162 -163 -164 0
-160 164 0
-160 161 0
-160 163 0
-160 162 0
161 -442 -635 0
161 461 616 0
161 616 -635 0
161 -442 461 0
-161 -461 635 0
-161 442 -616 0
162 568 574 0
162 -724 -731 0
162 568 -731 0
162 574 -724 0
-162 -568 724 0
-162 -574 731 0
163 603 615 0
163 -614 -629 0
163 603 -614 0
163 615 -629 0
-163 -603 629 0
-163 614 -615 0
164 -509 -664 0
164 490 683 0
164 490 -509 0
164 -664 683 0
-164 -490 664 0
-164 509 -683 0
80 124 165 -166 -168 0
-80 -165 0
-165 168 0
-165 166 0
-124 -165 0
166 -167 -716 717 -721 0
-166 167 0
-166 716 0
-166 721 0
-166 -717 0
167 -683 -693 694 -698 0
-167 698 0
-167 683 0
-167 693 0
-167 -694 0
168 -169 -172 -173 0
-168 169 0
-168 172 0
-168 173 0
169 170 171 585 -694 0
169 170 171 -585 694 0
-169 -170 0
-169 585 694 0
-169 -171 0
-169 -585 -694 0
170 608 617 0
-170 -608 0
-170 -617 0
171 587 669 0
-171 -587 0
-171 -669 0
172 -641 -668 669 -673 0
-172 673 0
-172 641 0
-172 668 0
-172 -669 0
173 -583 -616 -636 637 0
-173 636 0
-173 -637 0
-173 583 0
-173 616 0
38 77 99 174 175 0
-38 77 99 174 -175 0
-77 -174 0
38 -174 -175 0
-99 -174 0
-38 -174 175 0
-35 175 410 412 0
35 -175 0
-175 -412 0
-175 -410 0
134 176 -177 -184 0
176 -177 -182 -184 0
-176 184 0
-176 177 0
-134 -176 182 0
177 -178 -179 -180 -181 0
-177 181 0
-177 178 0
-177 180 0
-177 179 0
178 -461 -737 0
178 580 635 0
178 635 -737 0
178 -461 580 0
-178 -580 737 0
-178 461 -635 0
179 -589 669 0
179 587 -637 0
179 587 -589 0
179 -637 669 0
-179 -587 -669 0
-179 589 637 0
180 -574 629 0
180 -638 731 0
180 629 731 0
180 -574 -638 0
-180 -629 638 0
-180 574 -731 0
181 -571 664 0
181 -490 727 0
181 -490 -571 0
181 664 727 0
-181 571 -727 0
-181 490 -664 0
182 -183 410 412 0
-182 183 0
-182 -412 0
-182 -410 0
183 414 429 0
-183 -414 0
-183 -429 0
184 -185 -611 0
184 -185 616 0
-184 185 0
-184 611 -616 0
185 637 684 0
185 -510 589 0
185 589 684 0
185 -510 637 0
-185 -589 -637 0
-185 510 -684 0
93 97 186 -187 -193 0
-93 -186 0
-186 193 0
-186 187 0
-97 -186 0
187 -188 189 -191 -192 0
187 -188 189 191 192 0
-187 -189 0
-187 191 -192 0
-187 188 0
-187 -191 192 0
7 188 -701 0
-94 188 607 0
188 607 -701 0
7 -94 188 0
94 -188 701 0
-7 -188 -607 0
74 189 650 -651 0
74 189 190 650 0
-189 -650 0
-74 -189 0
-189 -190 651 0
190 645 646 0
190 -625 646 0
190 613 625 -646 0
-190 -613 -646 0
-190 -625 -646 0
-190 625 -645 646 0
-127 191 -424 0
-191 424 0
127 -191 0
-124 192 -598 0
-192 598 0
124 -192 0
75 193 -194 -195 0
75 193 194 195 0
-75 -193 0
-193 -194 195 0
-193 194 -195 0
-124 194 620 0
-194 -620 0
124 -194 0
-127 195 446 0
-195 -446 0
127 -195 0
196 -197 -198 -203 -206 0
-196 206 0
-196 197 0
-196 203 0
-196 198 0
197 -584 -730 0
-63 197 584 0
63 -197 584 0
-197 -584 730 0
198 200 201 202 0
198 -199 -201 -202 0
198 -199 201 202 0
198 200 -201 -202 0
-198 201 -202 0
-198 -201 202 0
-198 199 -200 0
-124 199 -659 0
-199 659 0
124 -199 0
-127 200 -485 0
-200 485 0
127 -200 0
-135 201 633 0
-201 -633 0
135 -201 0
-127 202 459 0
-202 -459 0
127 -202 0
-71 203 -204 0
-71 203 205 -724 0
71 -203 0
-203 204 -205 0
-203 204 724 0
-74 204 -715 0
204 715 726 0
-204 715 -726 0
74 -204 -715 0
-145 205 -566 0
205 566 570 0
-205 566 -570 0
145 -205 -566 0
206 -207 -227 -233 -234 0
-206 234 0
-206 207 0
-206 233 0
-206 227 0
94 207 -208 -215 -222 0
-94 -207 0
-207 222 0
-207 215 0
-207 208 0
208 209 212 213 214 0
208 209 -212 -213 214 0
-208 -214 0
-208 -212 213 0
-208 -209 0
-208 212 -213 0
209 -210 211 0
-209 210 0
-209 -211 0
210 738 739 0
210 661 -739 0
210 -661 739 0
-210 -661 -739 0
-210 661 -738 739 0
211 581 582 0
211 487 -582 0
211 -487 582 0
-211 -487 -582 0
-211 487 -581 582 0
-135 212 634 0
-212 -634 0
135 -212 0
-136 213 460 0
-213 -460 0
136 -213 0
-124 214 485 -659 0
-124 127 214 -659 0
124 -214 0
-214 659 0
-127 -214 -485 0
74 215 -216 220 -221 0
-215 216 0
-215 -220 0
-74 -215 0
-215 221 0
155 216 217 -218 0
216 217 -218 -588 0
-216 218 0
-216 -217 0
-155 -216 588 0
217 566 579 -736 0
217 566 579 -715 0
-217 -566 0
-217 -579 0
-217 715 736 0
218 219 -695 0
218 219 586 678 0
-218 -219 0
-218 -678 695 0
-218 -586 695 0
219 599 606 -607 0
-219 607 0
-219 -606 0
-219 -599 0
220 596 -597 -598 0
-220 598 0
-220 597 0
-220 -596 0
100 221 607 0
100 221 -599 0
100 221 -610 0
-100 -221 0
-221 599 -607 610 0
222 -223 226 -718 0
222 -223 -225 226 0
-222 223 0
-222 -226 0
-222 225 718 0
223 224 612 0
223 224 -611 0
223 224 613 0
-223 -224 0
-223 611 -612 -613 0
224 -566 715 736 0
224 -579 715 736 0
-224 -736 0
-224 -715 0
-224 566 579 0
225 584 704 0
-225 -584 0
-225 -704 0
226 599 608 0
226 -599 600 0
-226 -599 -600 0
-226 599 -608 0
211 227 228 -230 0
-210 227 228 -230 0
-227 230 0
-227 -228 0
210 -211 -227 0
228 -229 -591 0
228 -591 593 -595 0
-228 591 0
-228 229 -593 0
-228 229 595 0
229 -590 592 -593 594 0
-229 593 0
-229 -594 0
-229 590 0
-229 -592 0
230 -231 -232 0
230 231 232 0
-230 231 -232 0
-230 -231 232 0
-124 231 -733 0
-231 733 0
124 -231 0
-127 232 -576 0
-232 576 0
127 -232 0
76 -134 233 0
76 182 225 233 0
-76 -233 0
134 -225 -233 0
134 -182 -233 0
72 234 -650 0
72 -74 234 616 0
-72 -234 0
-234 -616 650 0
74 -234 650 0
-126 235 -236 0
123 235 -236 0
-235 236 0
-123 126 -235 0
96 197 236 237 240 0
96 -197 236 -237 240 0
-236 -240 0
-197 -236 237 0
-96 -236 0
197 -236 -237 0
237 -410 -556 0
237 -238 410 0
-237 238 410 0
-237 -410 556 0
238 -412 -535 0
238 -239 412 0
-238 239 412 0
-238 -412 535 0
239 -414 -511 0
239 414 -512 0
-239 414 512 0
-239 -414 511 0
240 -241 242 0
-240 241 0
-240 -242 0
-51 241 649 0
-241 -649 0
51 -241 0
-44 -51 242 642 0
-44 -190 242 642 0
-242 -642 0
44 -242 0
51 190 -242 0
-61 -80 243 0
-61 243 -244 0
61 -243 0
80 -243 244 0
-53 244 -598 0
-244 598 0
53 -244 0
124 245 -246 -265 0
244 245 -246 -265 0
-245 265 0
-245 246 0
-124 -244 -245 0
125 128 246 -247 264 0
-125 -128 246 -247 264 0
-246 -264 0
-125 128 -246 0
-246 247 0
125 -128 -246 0
247 -248 -252 -256 -260 0
247 -248 -252 256 260 0
-247 252 0
-247 256 -260 0
-247 248 0
-247 -256 260 0
248 -249 -250 251 0
248 249 250 251 0
-248 -251 0
-248 -249 250 0
-248 249 -250 0
-124 249 735 0
8 -124 249 610 0
124 -249 0
-8 -249 -735 0
-249 -610 -735 0
-136 250 578 0
25 -136 250 436 0
136 -250 0
-25 -250 -578 0
-250 -436 -578 0
-204 205 251 0
-204 251 683 -724 0
204 -251 0
-205 -251 -683 0
-205 -251 724 0
252 253 -254 255 0
252 253 254 -255 0
-252 -253 0
-252 -254 -255 0
-252 254 255 0
76 253 724 0
74 147 253 724 0
-253 -724 0
-74 -76 -253 0
-76 -147 -253 0
135 254 635 0
-135 254 734 0
-135 -254 -734 0
135 -254 -635 0
-136 255 -577 0
136 255 -461 0
136 -255 461 0
-136 -255 577 0
-195 256 -258 445 0
-195 256 -257 -258 0
-256 258 0
195 -256 0
-256 257 -445 0
257 447 457 0
257 -423 447 0
-257 -447 0
-257 423 -457 0
258 259 447 0
258 -259 423 0
258 259 457 0
-258 -259 -423 0
-258 259 -447 -457 0
259 -424 -458 0
-259 424 0
-259 458 0
-194 260 -262 619 0
-194 260 -261 -262 0
-260 262 0
194 -260 0
-260 261 -619 0
261 621 631 0
261 -597 621 0
-261 -621 0
-261 597 -631 0
262 263 621 0
262 -263 597 0
262 263 631 0
-262 -263 -597 0
-262 263 -621 -631 0
263 -598 -632 0
-263 598 0
-263 632 0
-241 264 -614 0
-242 264 -614 0
-264 614 0
241 242 -264 0
-92 265 -266 0
-92 115 265 0
92 -265 0
-115 -265 266 0
-111 266 567 0
266 566 567 0
-266 -567 0
111 -266 -566 0
66 117 267 -268 0
-66 -129 267 -268 0
-267 268 0
66 -117 -267 0
-66 129 -267 0
266 268 269 0
-115 -116 268 269 0
-268 -269 0
116 -266 -268 0
115 -266 -268 0
52 269 -270 0
-52 -269 0
-269 270 0
270 -410 -538 0
270 271 410 0
-270 -410 538 0
-270 -271 410 0
271 -412 515 0
271 -272 412 0
-271 -412 -515 0
-271 272 412 0
272 -414 491 0
272 -273 414 0
-272 -414 -491 0
-272 273 414 0
273 274 422 0
273 274 444 445 0
-273 -274 0
-273 -422 -445 0
-273 -422 -444 0
274 275 423 -444 -445 0
-274 -423 0
-274 -275 0
-274 445 0
-274 444 0
275 -446 -447 0
-275 446 0
-275 447 0
41 104 276 277 278 0
-41 -104 276 277 278 0
-276 -277 0
-41 104 -276 0
-276 -278 0
41 -104 -276 0
-52 270 277 0
52 -277 0
-270 -277 0
-240 278 -588 0
278 279 -588 0
9 278 -588 0
-278 588 0
-9 240 -278 -279 0
80 97 155 279 280 0
-279 -280 0
-155 -279 0
-80 -279 0
-97 -279 0
74 280 650 0
-280 -650 0
-74 -280 0
-237 281 -286 408 0
-237 281 -282 -286 0
-281 286 0
237 -281 0
-281 282 -408 0
-21 282 -285 550 0
-21 282 -283 -285 0
-282 285 0
21 -282 0
-282 283 -550 0
283 284 541 548 0
-104 283 284 548 0
-283 -284 0
-283 -548 0
104 -283 -541 0
111 284 -518 0
111 284 -540 0
-111 -284 0
-284 518 540 0
270 285 557 0
-285 -557 0
-270 -285 0
286 461 -509 0
286 -509 -510 0
-286 509 0
-286 -461 510 0
-21 287 -288 -397 0
-175 287 -288 -397 0
-287 397 0
-287 288 0
21 175 -287 0
22 288 -289 0
-35 288 -289 412 0
-288 289 0
-22 -288 -412 0
-22 35 -288 0
289 -296 -305 0
289 290 -305 412 0
-289 305 0
-289 -290 296 0
-289 296 -412 0
290 291 295 0
-23 290 291 -293 0
-290 -291 0
23 -290 -295 0
-290 293 -295 0
291 414 508 514 0
291 292 -414 508 -514 0
-291 -414 514 0
-291 -292 -514 0
-291 -508 0
-291 414 -514 0
-286 292 -414 -511 0
-286 292 414 -512 0
286 -292 0
-292 -414 511 0
-292 414 512 0
-272 293 -294 513 0
-272 293 502 513 0
272 -293 0
-293 -513 0
-293 294 -502 0
-113 294 493 500 0
-106 -113 294 500 0
113 -294 0
-294 -500 0
106 -294 -493 0
-292 295 -414 -508 0
-295 414 0
-295 508 0
292 -295 0
33 296 297 299 -302 0
-296 302 0
-296 -299 0
-33 -296 0
-296 -297 0
294 297 -298 0
-294 -297 0
-297 298 0
-113 298 501 0
298 493 501 0
-298 -501 0
113 -298 -493 0
299 -300 414 0
299 -301 414 0
-299 -414 0
-299 300 301 0
300 -459 460 -461 0
-300 459 0
-300 -460 0
-300 461 0
-273 301 -424 0
-301 424 0
273 -301 0
302 -304 -502 0
-145 302 -303 -304 0
-302 304 0
-302 303 502 0
145 -302 502 0
-145 303 -493 0
303 493 503 0
-303 493 -503 0
145 -303 -493 0
304 -412 414 429 0
304 -412 414 -504 0
-304 412 0
-304 -414 0
-304 -429 504 0
305 -306 -310 -316 -390 0
-305 390 0
-305 306 0
-305 316 0
-305 310 0
103 -283 306 -308 0
103 283 306 307 0
-283 306 -307 -308 0
283 -306 -307 0
-283 -306 308 0
-103 -306 307 0
-111 307 549 0
307 541 549 0
-307 -549 0
111 -307 -541 0
308 -309 410 0
-308 -410 0
-308 309 0
112 309 526 0
309 518 526 0
-309 -526 0
-112 -309 -518 0
310 311 -313 0
309 310 311 0
-310 -311 0
-309 -310 313 0
311 312 527 0
-311 -527 0
-311 -312 0
-145 312 -518 0
312 518 529 0
-312 518 -529 0
145 -312 -518 0
313 314 518 525 0
-105 313 314 525 0
-313 -314 0
-313 -525 0
105 -313 -518 0
314 315 -493 0
314 315 -517 0
-314 -315 0
-314 493 517 0
-113 315 412 0
-315 -412 0
113 -315 0
-23 316 -317 -330 0
-35 316 -317 -330 0
-316 330 0
-316 317 0
23 35 -316 0
297 317 318 -322 -329 0
-297 -317 0
-317 329 0
-317 322 0
-317 -318 0
318 -319 320 0
-318 319 0
-318 -320 0
-114 319 475 0
-319 -475 0
114 -319 0
-107 -114 320 468 0
-107 320 -321 468 0
-320 -468 0
107 -320 0
114 -320 321 0
321 471 472 0
321 -451 472 0
321 439 451 -472 0
-321 -439 -472 0
-321 -451 -472 0
-321 451 -471 472 0
322 -324 -326 -550 0
322 -323 -324 -326 0
-322 326 0
-322 324 0
-322 323 550 0
-145 323 -541 0
323 541 552 0
-323 541 -552 0
145 -323 -541 0
324 325 568 0
324 325 -509 0
205 324 325 0
-324 -325 0
-205 -324 509 -568 0
-24 325 -433 0
-325 433 0
24 -325 0
301 326 -327 -527 0
301 -303 326 -327 0
-326 327 0
-301 -326 0
303 -326 527 0
327 328 -550 0
-312 327 328 0
-327 -328 0
312 -327 550 0
145 328 476 -477 0
145 321 328 476 0
-328 -476 0
-145 -328 0
-321 -328 477 0
271 294 329 0
191 329 475 0
191 294 329 0
271 329 475 0
-191 -271 -329 0
-294 -329 -475 0
330 -331 -333 440 0
330 -331 -332 -333 0
-330 333 0
-330 331 0
-330 332 -440 0
137 331 0
271 300 331 0
300 331 424 0
-137 -300 -331 0
-137 -271 -331 -424 0
319 320 332 0
-319 -332 0
-320 -332 0
333 -334 -345 -346 -361 0
-333 361 0
-333 334 0
-333 346 0
-333 345 0
303 323 334 -335 -341 0
-303 -334 0
-334 341 0
-334 335 0
-323 -334 0
335 -336 -568 0
-145 335 -336 0
-146 335 -336 0
-335 336 0
145 146 -335 568 0
336 337 -339 0
336 337 417 0
-336 -337 0
-336 339 -417 0
145 337 550 -551 0
145 337 338 550 0
-337 -550 0
-145 -337 0
-337 -338 551 0
338 518 540 0
-338 -518 0
-338 -540 0
339 -419 -420 0
339 419 421 0
339 340 -419 0
-339 419 -421 0
-339 -340 -419 420 0
340 -416 418 0
-340 416 0
-340 -418 0
341 342 344 0
341 342 -410 0
-341 -342 0
-341 -344 410 0
342 343 -429 0
342 -429 430 -431 0
-342 429 0
-342 -343 -430 0
-342 -343 431 0
343 427 -455 -479 0
343 -428 -455 -479 0
-343 479 0
-343 455 0
-343 -427 428 0
183 344 530 0
344 -412 530 0
-344 -530 0
-183 -344 412 0
-237 345 -568 0
-205 -237 -323 345 0
237 -345 0
205 -345 568 0
323 -345 568 0
311 346 -347 -352 -357 0
-311 -346 0
-346 357 0
-346 352 0
-346 347 0
300 347 348 -350 0
127 347 348 -350 0
-347 350 0
-347 -348 0
-127 -300 -347 0
348 -349 -433 -434 435 0
-348 349 0
-348 433 0
-348 434 0
-348 -435 0
349 -425 -432 0
-349 425 0
-349 432 0
300 350 -412 0
350 351 -414 0
350 -412 -414 0
300 350 351 0
-350 -351 412 0
-300 -350 414 0
183 351 504 0
-351 -504 0
-183 -351 0
344 352 -353 -354 -355 0
-344 -352 0
-352 355 0
-352 354 0
-352 353 0
353 -409 442 0
353 -476 -543 0
353 442 -543 0
353 -409 -476 0
-353 -442 476 0
-353 409 543 0
354 -464 553 0
354 455 -560 0
354 455 553 0
354 -464 -560 0
-354 -455 464 0
-354 -553 560 0
355 356 -521 0
-183 355 356 412 0
-355 -356 0
-355 -412 521 0
183 -355 521 0
356 -429 448 0
356 -429 430 449 0
-356 429 0
-356 -430 -448 0
-356 -448 -449 0
-286 357 -358 360 0
357 -358 360 408 0
-357 358 0
-357 -360 0
286 -357 -408 0
-145 -182 358 0
358 -359 -553 0
-145 358 -553 0
-182 358 -359 0
145 -358 359 0
182 -358 553 0
359 -437 -476 -502 0
359 452 -476 -502 0
-359 502 0
-359 476 0
-359 437 -452 0
182 360 560 0
182 360 571 0
182 360 544 0
-182 -360 0
-360 -544 -560 -571 0
312 361 -362 370 -372 0
-361 362 0
-361 -370 0
-312 -361 0
-361 372 0
362 -363 -364 -366 -368 0
-362 368 0
-362 363 0
-362 366 0
-362 364 0
363 -496 0
363 414 429 479 0
-363 -414 496 0
-363 -429 496 0
-363 -479 496 0
364 365 -544 0
364 365 410 530 0
-364 -365 0
-364 -530 544 0
-364 -410 544 0
365 437 -438 -439 0
-365 439 0
-365 438 0
-365 -437 0
366 367 -425 -426 0
366 367 425 -434 0
-366 -367 0
-366 -425 426 0
-366 425 434 0
367 -413 -495 0
367 413 495 0
-367 413 -495 0
-367 -413 495 0
368 369 423 0
368 369 -422 0
368 369 424 0
-368 -369 0
-368 422 -423 -424 0
369 425 -433 436 0
369 425 432 -433 0
-369 -425 0
-369 433 0
-369 -432 -436 0
145 370 527 -528 0
145 370 371 527 0
-370 -527 0
-145 -370 0
-370 -371 528 0
371 493 517 0
-371 -493 0
-371 -517 0
372 -373 -385 -386 -387 0
-372 387 0
-372 373 0
-372 386 0
-372 385 0
373 -374 -380 -381 -382 0
-373 382 0
-373 374 0
-373 381 0
-373 380 0
374 -375 -376 -378 -379 0
-374 379 0
-374 375 0
-374 378 0
-374 376 0
375 -434 -442 -462 0
375 -442 -443 -462 0
-375 462 0
-375 442 0
-375 434 443 0
376 377 409 0
376 377 543 0
-376 -377 0
-376 -409 -543 0
377 -461 510 0
-377 461 0
-377 -510 0
378 -499 -502 -509 -519 0
-378 519 0
-378 499 0
-378 509 0
-378 502 0
379 463 -467 -494 495 0
-379 -463 0
-379 -495 0
-379 494 0
-379 467 0
380 415 442 0
380 -437 463 0
380 415 -437 0
380 442 463 0
-380 -415 -463 0
-380 437 -442 0
381 -411 441 0
381 -440 -520 0
381 -411 -440 0
381 441 -520 0
-381 440 -441 0
-381 411 520 0
382 383 384 407 -559 0
382 383 384 -407 559 0
-382 -383 0
-382 407 559 0
-382 -384 0
-382 -407 -559 0
383 -411 -520 0
-383 411 0
-383 520 0
384 415 463 0
-384 -415 0
-384 -463 0
385 -414 -504 0
385 414 429 0
385 -479 -504 0
-385 -414 504 0
-385 -429 504 0
-385 414 -429 479 0
127 386 -521 0
127 386 412 504 0
-127 -386 0
-386 -504 521 0
-386 -412 521 0
145 300 387 -388 -389 0
-145 -387 0
-387 389 0
-387 388 0
-300 -387 0
388 -547 -558 559 -563 0
-388 563 0
-388 547 0
-388 558 0
-388 -559 0
389 520 -524 -542 543 0
-389 -520 0
-389 -543 0
-389 542 0
-389 524 0
-103 390 -391 -393 0
266 390 -391 -393 0
-390 393 0
-390 391 0
103 -266 -390 0
-313 391 -392 0
308 391 -392 0
-391 392 0
-308 313 -391 0
-331 344 392 0
331 -392 0
-344 -392 0
313 393 394 0
-298 393 394 412 0
-393 -394 0
-313 -393 -412 0
298 -313 -393 0
-318 394 -414 0
394 395 -414 0
26 394 -414 0
-394 414 0
-26 318 -394 -395 0
300 395 396 429 0
300 395 396 -479 0
-395 -396 0
-300 -395 0
-395 -429 479 0
145 396 476 0
-396 -476 0
-145 -396 0
397 -403 405 0
397 398 405 410 0
-397 -405 0
-397 -398 403 0
-397 403 -410 0
398 399 402 0
22 398 399 -401 0
-398 -399 0
-22 -398 -402 0
-398 401 -402 0
-137 399 534 537 0
137 399 400 534 -537 0
-137 -399 -537 0
137 -399 -400 0
-399 -534 0
137 -399 537 0
-238 -286 400 0
238 -400 0
286 -400 0
-271 -313 401 536 0
-271 401 527 536 0
271 -401 0
-401 -536 0
313 -401 -527 0
137 -400 402 -534 0
-402 534 0
-137 -402 0
400 -402 0
-36 -310 -392 403 -404 0
-403 404 0
36 -403 0
392 -403 0
310 -403 0
-137 300 370 404 -410 0
137 -404 0
-370 -404 0
-404 410 0
-300 -404 0
-21 405 -406 568 0
-21 -103 405 -406 0
-405 406 0
21 -405 0
103 -405 -568 0
270 406 574 0
-406 -574 0
-270 -406 0
1 2 0
-1 -2 0
740 0

